p cnf 266 1055
c p weight 10 1 0
c p weight -10 1 0
c p weight 11 0 0
c p weight -11 1 0
c p weight 12 -1 0
c p weight -12 1 0
c p weight 14 6.12323399573676603586882014729198302312846062338790031898128063403419218957424163818359375E-17 0
c p weight -14 1 0
c p weight 15 1 0
c p weight -15 1 0
c p weight 16 -1 0
c p weight -16 1 0
c p weight 18 0.99999999341620082748960385288228280842304229736328125 0
c p weight -18 1 0
c p weight 19 0.000114750156409794252750956877751065121628926135599613189697265625 0
c p weight -19 1 0
c p weight 20 -1 0
c p weight -20 1 0
c p weight 22 6.12323399573676603586882014729198302312846062338790031898128063403419218957424163818359375E-17 0
c p weight -22 1 0
c p weight 23 1 0
c p weight -23 1 0
c p weight 24 -1 0
c p weight -24 1 0
c p weight 26 -1 0
c p weight -26 1 0
c p weight 27 3.673940397442059375002259206809000622711899723162043418511757408850826323032379150390625E-16 0
c p weight -27 1 0
c p weight 28 -1 0
c p weight -28 1 0
c p weight 30 1 0
c p weight -30 1 0
c p weight 31 0 0
c p weight -31 1 0
c p weight 32 -1 0
c p weight -32 1 0
c p weight 34 6.12323399573676603586882014729198302312846062338790031898128063403419218957424163818359375E-17 0
c p weight -34 1 0
c p weight 35 1 0
c p weight -35 1 0
c p weight 36 -1 0
c p weight -36 1 0
c p weight 38 -0.75066076706900586312798395738354884088039398193359375 0
c p weight -38 1 0
c p weight 39 -0.66068783308259260156347636439022608101367950439453125 0
c p weight -39 1 0
c p weight 40 -1 0
c p weight -40 1 0
c p weight 42 6.12323399573676603586882014729198302312846062338790031898128063403419218957424163818359375E-17 0
c p weight -42 1 0
c p weight 43 1 0
c p weight -43 1 0
c p weight 44 -1 0
c p weight -44 1 0
c p weight 46 -1 0
c p weight -46 1 0
c p weight 47 3.673940397442059375002259206809000622711899723162043418511757408850826323032379150390625E-16 0
c p weight -47 1 0
c p weight 48 -1 0
c p weight -48 1 0
c p weight 50 1 0
c p weight -50 1 0
c p weight 51 0 0
c p weight -51 1 0
c p weight 52 -1 0
c p weight -52 1 0
c p weight 54 6.12323399573676603586882014729198302312846062338790031898128063403419218957424163818359375E-17 0
c p weight -54 1 0
c p weight 55 1 0
c p weight -55 1 0
c p weight 56 -1 0
c p weight -56 1 0
c p weight 58 -0.9999997634742612273583972637425176799297332763671875 0
c p weight -58 1 0
c p weight 59 -0.00068778733752219837517538625348834102624095976352691650390625 0
c p weight -59 1 0
c p weight 60 -1 0
c p weight -60 1 0
c p weight 62 6.12323399573676603586882014729198302312846062338790031898128063403419218957424163818359375E-17 0
c p weight -62 1 0
c p weight 63 1 0
c p weight -63 1 0
c p weight 64 -1 0
c p weight -64 1 0
c p weight 66 -1 0
c p weight -66 1 0
c p weight 67 3.673940397442059375002259206809000622711899723162043418511757408850826323032379150390625E-16 0
c p weight -67 1 0
c p weight 68 -1 0
c p weight -68 1 0
c p weight 70 1 0
c p weight -70 1 0
c p weight 71 0 0
c p weight -71 1 0
c p weight 72 -1 0
c p weight -72 1 0
c p weight 74 6.12323399573676603586882014729198302312846062338790031898128063403419218957424163818359375E-17 0
c p weight -74 1 0
c p weight 75 1 0
c p weight -75 1 0
c p weight 76 -1 0
c p weight -76 1 0
c p weight 78 0.42407775752533216628847867468721233308315277099609375 0
c p weight -78 1 0
c p weight 79 -0.90562578119899261874792273374623619019985198974609375 0
c p weight -79 1 0
c p weight 80 -1 0
c p weight -80 1 0
c p weight 82 6.12323399573676603586882014729198302312846062338790031898128063403419218957424163818359375E-17 0
c p weight -82 1 0
c p weight 83 1 0
c p weight -83 1 0
c p weight 84 -1 0
c p weight -84 1 0
c p weight 86 -1 0
c p weight -86 1 0
c p weight 87 3.673940397442059375002259206809000622711899723162043418511757408850826323032379150390625E-16 0
c p weight -87 1 0
c p weight 88 -1 0
c p weight -88 1 0
c p weight 91 -1 0
c p weight -91 1 0
c p weight 94 -1 0
c p weight -94 1 0
c p weight 97 -1 0
c p weight -97 1 0
c p weight 99 1 0
c p weight -99 1 0
c p weight 100 0 0
c p weight -100 1 0
c p weight 101 -1 0
c p weight -101 1 0
c p weight 103 6.12323399573676603586882014729198302312846062338790031898128063403419218957424163818359375E-17 0
c p weight -103 1 0
c p weight 104 1 0
c p weight -104 1 0
c p weight 105 -1 0
c p weight -105 1 0
c p weight 107 -0.999999969940104538324021632433868944644927978515625 0
c p weight -107 1 0
c p weight 108 0.000245193372566893563919976362086572407861240208148956298828125 0
c p weight -108 1 0
c p weight 109 -1 0
c p weight -109 1 0
c p weight 111 6.12323399573676603586882014729198302312846062338790031898128063403419218957424163818359375E-17 0
c p weight -111 1 0
c p weight 112 1 0
c p weight -112 1 0
c p weight 113 -1 0
c p weight -113 1 0
c p weight 115 -1 0
c p weight -115 1 0
c p weight 116 3.673940397442059375002259206809000622711899723162043418511757408850826323032379150390625E-16 0
c p weight -116 1 0
c p weight 117 -1 0
c p weight -117 1 0
c p weight 119 1 0
c p weight -119 1 0
c p weight 120 0 0
c p weight -120 1 0
c p weight 121 -1 0
c p weight -121 1 0
c p weight 123 6.12323399573676603586882014729198302312846062338790031898128063403419218957424163818359375E-17 0
c p weight -123 1 0
c p weight 124 1 0
c p weight -124 1 0
c p weight 125 -1 0
c p weight -125 1 0
c p weight 127 -0.98774388449546945967227884466410614550113677978515625 0
c p weight -127 1 0
c p weight 128 0.1560833708048386669897666934048174880445003509521484375 0
c p weight -128 1 0
c p weight 129 -1 0
c p weight -129 1 0
c p weight 131 6.12323399573676603586882014729198302312846062338790031898128063403419218957424163818359375E-17 0
c p weight -131 1 0
c p weight 132 1 0
c p weight -132 1 0
c p weight 133 -1 0
c p weight -133 1 0
c p weight 135 -1 0
c p weight -135 1 0
c p weight 136 3.673940397442059375002259206809000622711899723162043418511757408850826323032379150390625E-16 0
c p weight -136 1 0
c p weight 137 -1 0
c p weight -137 1 0
c p weight 139 1 0
c p weight -139 1 0
c p weight 140 0 0
c p weight -140 1 0
c p weight 141 -1 0
c p weight -141 1 0
c p weight 143 6.12323399573676603586882014729198302312846062338790031898128063403419218957424163818359375E-17 0
c p weight -143 1 0
c p weight 144 1 0
c p weight -144 1 0
c p weight 145 -1 0
c p weight -145 1 0
c p weight 147 0.9725555841630180164969488032511435449123382568359375 0
c p weight -147 1 0
c p weight 148 0.2326706593305886972000706691687810234725475311279296875 0
c p weight -148 1 0
c p weight 149 -1 0
c p weight -149 1 0
c p weight 151 6.12323399573676603586882014729198302312846062338790031898128063403419218957424163818359375E-17 0
c p weight -151 1 0
c p weight 152 1 0
c p weight -152 1 0
c p weight 153 -1 0
c p weight -153 1 0
c p weight 155 -1 0
c p weight -155 1 0
c p weight 156 3.673940397442059375002259206809000622711899723162043418511757408850826323032379150390625E-16 0
c p weight -156 1 0
c p weight 157 -1 0
c p weight -157 1 0
c p weight 159 1 0
c p weight -159 1 0
c p weight 160 0 0
c p weight -160 1 0
c p weight 161 -1 0
c p weight -161 1 0
c p weight 163 6.12323399573676603586882014729198302312846062338790031898128063403419218957424163818359375E-17 0
c p weight -163 1 0
c p weight 164 1 0
c p weight -164 1 0
c p weight 165 -1 0
c p weight -165 1 0
c p weight 167 0.9057326326424128826175774520379491150379180908203125 0
c p weight -167 1 0
c p weight 168 -0.423849499429507503567293724699993617832660675048828125 0
c p weight -168 1 0
c p weight 169 -1 0
c p weight -169 1 0
c p weight 171 6.12323399573676603586882014729198302312846062338790031898128063403419218957424163818359375E-17 0
c p weight -171 1 0
c p weight 172 1 0
c p weight -172 1 0
c p weight 173 -1 0
c p weight -173 1 0
c p weight 175 -1 0
c p weight -175 1 0
c p weight 176 3.673940397442059375002259206809000622711899723162043418511757408850826323032379150390625E-16 0
c p weight -176 1 0
c p weight 177 -1 0
c p weight -177 1 0
c p weight 180 -1 0
c p weight -180 1 0
c p weight 183 -1 0
c p weight -183 1 0
c p weight 186 -1 0
c p weight -186 1 0
c p weight 188 1 0
c p weight -188 1 0
c p weight 189 0 0
c p weight -189 1 0
c p weight 190 -1 0
c p weight -190 1 0
c p weight 192 6.12323399573676603586882014729198302312846062338790031898128063403419218957424163818359375E-17 0
c p weight -192 1 0
c p weight 193 1 0
c p weight -193 1 0
c p weight 194 -1 0
c p weight -194 1 0
c p weight 196 -0.99999999918888138328298964552232064306735992431640625 0
c p weight -196 1 0
c p weight 197 0.00004027700494580081585181685621677161179832182824611663818359375 0
c p weight -197 1 0
c p weight 198 -1 0
c p weight -198 1 0
c p weight 200 6.12323399573676603586882014729198302312846062338790031898128063403419218957424163818359375E-17 0
c p weight -200 1 0
c p weight 201 1 0
c p weight -201 1 0
c p weight 202 -1 0
c p weight -202 1 0
c p weight 204 -1 0
c p weight -204 1 0
c p weight 205 3.673940397442059375002259206809000622711899723162043418511757408850826323032379150390625E-16 0
c p weight -205 1 0
c p weight 206 -1 0
c p weight -206 1 0
c p weight 208 1 0
c p weight -208 1 0
c p weight 209 0 0
c p weight -209 1 0
c p weight 210 -1 0
c p weight -210 1 0
c p weight 212 6.12323399573676603586882014729198302312846062338790031898128063403419218957424163818359375E-17 0
c p weight -212 1 0
c p weight 213 1 0
c p weight -213 1 0
c p weight 214 -1 0
c p weight -214 1 0
c p weight 216 -0.741490656267568493120734274270944297313690185546875 0
c p weight -216 1 0
c p weight 217 0.670963193228876431106755262590013444423675537109375 0
c p weight -217 1 0
c p weight 218 -1 0
c p weight -218 1 0
c p weight 220 6.12323399573676603586882014729198302312846062338790031898128063403419218957424163818359375E-17 0
c p weight -220 1 0
c p weight 221 1 0
c p weight -221 1 0
c p weight 222 -1 0
c p weight -222 1 0
c p weight 224 -1 0
c p weight -224 1 0
c p weight 225 3.673940397442059375002259206809000622711899723162043418511757408850826323032379150390625E-16 0
c p weight -225 1 0
c p weight 226 -1 0
c p weight -226 1 0
c p weight 228 1 0
c p weight -228 1 0
c p weight 229 0 0
c p weight -229 1 0
c p weight 230 -1 0
c p weight -230 1 0
c p weight 232 6.12323399573676603586882014729198302312846062338790031898128063403419218957424163818359375E-17 0
c p weight -232 1 0
c p weight 233 1 0
c p weight -233 1 0
c p weight 234 -1 0
c p weight -234 1 0
c p weight 236 -0.98453380231138254430334200151264667510986328125 0
c p weight -236 1 0
c p weight 237 0.1751947262513671998984676747568300925195217132568359375 0
c p weight -237 1 0
c p weight 238 -1 0
c p weight -238 1 0
c p weight 240 6.12323399573676603586882014729198302312846062338790031898128063403419218957424163818359375E-17 0
c p weight -240 1 0
c p weight 241 1 0
c p weight -241 1 0
c p weight 242 -1 0
c p weight -242 1 0
c p weight 244 -1 0
c p weight -244 1 0
c p weight 245 3.673940397442059375002259206809000622711899723162043418511757408850826323032379150390625E-16 0
c p weight -245 1 0
c p weight 246 -1 0
c p weight -246 1 0
c p weight 248 1 0
c p weight -248 1 0
c p weight 249 0 0
c p weight -249 1 0
c p weight 250 -1 0
c p weight -250 1 0
c p weight 252 6.12323399573676603586882014729198302312846062338790031898128063403419218957424163818359375E-17 0
c p weight -252 1 0
c p weight 253 1 0
c p weight -253 1 0
c p weight 254 -1 0
c p weight -254 1 0
c p weight 256 -0.00000521941199674136500842765162833103431694325990974903106689453125 0
c p weight -256 1 0
c p weight 257 0.99999999998637889575547887943685054779052734375 0
c p weight -257 1 0
c p weight 258 -1 0
c p weight -258 1 0
c p weight 260 6.12323399573676603586882014729198302312846062338790031898128063403419218957424163818359375E-17 0
c p weight -260 1 0
c p weight 261 1 0
c p weight -261 1 0
c p weight 262 -1 0
c p weight -262 1 0
c p weight 264 -1 0
c p weight -264 1 0
c p weight 265 3.673940397442059375002259206809000622711899723162043418511757408850826323032379150390625E-16 0
c p weight -265 1 0
c p weight 266 -1 0
c p weight -266 1 0
-7 0
-5 0
-3 0
-1 0
9 1 -2 0
-9 1 2 0
-10 1 0
9 -10 -2 0
-9 -10 2 0
9 10 -1 2 0
-9 10 -1 -2 0
-11 1 0
9 -11 2 0
-9 -11 -2 0
9 11 -1 -2 0
-9 11 -1 2 0
-12 1 0
-12 2 0
-12 -9 0
12 9 -1 -2 0
13 -1 9 0
-13 1 9 0
-14 9 0
13 -14 -1 0
-13 -14 1 0
13 14 1 -9 0
-13 14 -1 -9 0
-15 9 0
13 -15 1 0
-13 -15 -1 0
13 15 -1 -9 0
-13 15 1 -9 0
-16 13 0
-16 9 0
-16 -1 0
16 -13 1 -9 0
17 13 -9 0
-17 13 9 0
-18 13 0
17 -18 -9 0
-17 -18 9 0
17 18 -13 9 0
-17 18 -13 -9 0
-19 13 0
17 -19 9 0
-17 -19 -9 0
17 19 -13 -9 0
-17 19 -13 9 0
-20 13 0
-20 9 0
-20 -17 0
20 17 -13 -9 0
21 -13 17 0
-21 13 17 0
-22 17 0
21 -22 -13 0
-21 -22 13 0
21 22 13 -17 0
-21 22 -13 -17 0
-23 17 0
21 -23 13 0
-21 -23 -13 0
21 23 -13 -17 0
-21 23 13 -17 0
-24 21 0
-24 17 0
-24 -13 0
24 -21 13 -17 0
25 21 -17 0
-25 21 17 0
-26 21 0
25 -26 -17 0
-25 -26 17 0
25 26 -21 17 0
-25 26 -21 -17 0
-27 21 0
25 -27 17 0
-25 -27 -17 0
25 27 -21 -17 0
-25 27 -21 17 0
-28 21 0
-28 17 0
-28 -25 0
28 25 -21 -17 0
29 3 -4 0
-29 3 4 0
-30 3 0
29 -30 -4 0
-29 -30 4 0
29 30 -3 4 0
-29 30 -3 -4 0
-31 3 0
29 -31 4 0
-29 -31 -4 0
29 31 -3 -4 0
-29 31 -3 4 0
-32 3 0
-32 4 0
-32 -29 0
32 29 -3 -4 0
33 -3 29 0
-33 3 29 0
-34 29 0
33 -34 -3 0
-33 -34 3 0
33 34 3 -29 0
-33 34 -3 -29 0
-35 29 0
33 -35 3 0
-33 -35 -3 0
33 35 -3 -29 0
-33 35 3 -29 0
-36 33 0
-36 29 0
-36 -3 0
36 -33 3 -29 0
37 33 -29 0
-37 33 29 0
-38 33 0
37 -38 -29 0
-37 -38 29 0
37 38 -33 29 0
-37 38 -33 -29 0
-39 33 0
37 -39 29 0
-37 -39 -29 0
37 39 -33 -29 0
-37 39 -33 29 0
-40 33 0
-40 29 0
-40 -37 0
40 37 -33 -29 0
41 -33 37 0
-41 33 37 0
-42 37 0
41 -42 -33 0
-41 -42 33 0
41 42 33 -37 0
-41 42 -33 -37 0
-43 37 0
41 -43 33 0
-41 -43 -33 0
41 43 -33 -37 0
-41 43 33 -37 0
-44 41 0
-44 37 0
-44 -33 0
44 -41 33 -37 0
45 41 -37 0
-45 41 37 0
-46 41 0
45 -46 -37 0
-45 -46 37 0
45 46 -41 37 0
-45 46 -41 -37 0
-47 41 0
45 -47 37 0
-45 -47 -37 0
45 47 -41 -37 0
-45 47 -41 37 0
-48 41 0
-48 37 0
-48 -45 0
48 45 -41 -37 0
49 5 -6 0
-49 5 6 0
-50 5 0
49 -50 -6 0
-49 -50 6 0
49 50 -5 6 0
-49 50 -5 -6 0
-51 5 0
49 -51 6 0
-49 -51 -6 0
49 51 -5 -6 0
-49 51 -5 6 0
-52 5 0
-52 6 0
-52 -49 0
52 49 -5 -6 0
53 -5 49 0
-53 5 49 0
-54 49 0
53 -54 -5 0
-53 -54 5 0
53 54 5 -49 0
-53 54 -5 -49 0
-55 49 0
53 -55 5 0
-53 -55 -5 0
53 55 -5 -49 0
-53 55 5 -49 0
-56 53 0
-56 49 0
-56 -5 0
56 -53 5 -49 0
57 53 -49 0
-57 53 49 0
-58 53 0
57 -58 -49 0
-57 -58 49 0
57 58 -53 49 0
-57 58 -53 -49 0
-59 53 0
57 -59 49 0
-57 -59 -49 0
57 59 -53 -49 0
-57 59 -53 49 0
-60 53 0
-60 49 0
-60 -57 0
60 57 -53 -49 0
61 -53 57 0
-61 53 57 0
-62 57 0
61 -62 -53 0
-61 -62 53 0
61 62 53 -57 0
-61 62 -53 -57 0
-63 57 0
61 -63 53 0
-61 -63 -53 0
61 63 -53 -57 0
-61 63 53 -57 0
-64 61 0
-64 57 0
-64 -53 0
64 -61 53 -57 0
65 61 -57 0
-65 61 57 0
-66 61 0
65 -66 -57 0
-65 -66 57 0
65 66 -61 57 0
-65 66 -61 -57 0
-67 61 0
65 -67 57 0
-65 -67 -57 0
65 67 -61 -57 0
-65 67 -61 57 0
-68 61 0
-68 57 0
-68 -65 0
68 65 -61 -57 0
69 7 -8 0
-69 7 8 0
-70 7 0
69 -70 -8 0
-69 -70 8 0
69 70 -7 8 0
-69 70 -7 -8 0
-71 7 0
69 -71 8 0
-69 -71 -8 0
69 71 -7 -8 0
-69 71 -7 8 0
-72 7 0
-72 8 0
-72 -69 0
72 69 -7 -8 0
73 -7 69 0
-73 7 69 0
-74 69 0
73 -74 -7 0
-73 -74 7 0
73 74 7 -69 0
-73 74 -7 -69 0
-75 69 0
73 -75 7 0
-73 -75 -7 0
73 75 -7 -69 0
-73 75 7 -69 0
-76 73 0
-76 69 0
-76 -7 0
76 -73 7 -69 0
77 73 -69 0
-77 73 69 0
-78 73 0
77 -78 -69 0
-77 -78 69 0
77 78 -73 69 0
-77 78 -73 -69 0
-79 73 0
77 -79 69 0
-77 -79 -69 0
77 79 -73 -69 0
-77 79 -73 69 0
-80 73 0
-80 69 0
-80 -77 0
80 77 -73 -69 0
81 -73 77 0
-81 73 77 0
-82 77 0
81 -82 -73 0
-81 -82 73 0
81 82 73 -77 0
-81 82 -73 -77 0
-83 77 0
81 -83 73 0
-81 -83 -73 0
81 83 -73 -77 0
-81 83 73 -77 0
-84 81 0
-84 77 0
-84 -73 0
84 -81 73 -77 0
85 81 -77 0
-85 81 77 0
-86 81 0
85 -86 -77 0
-85 -86 77 0
85 86 -81 77 0
-85 86 -81 -77 0
-87 81 0
85 -87 77 0
-85 -87 -77 0
85 87 -81 -77 0
-85 87 -81 77 0
-88 81 0
-88 77 0
-88 -85 0
88 85 -81 -77 0
89 61 -81 0
89 -61 81 0
-89 61 81 0
-89 -61 -81 0
90 65 -85 0
90 -65 85 0
-90 65 85 0
-90 -65 -85 0
-91 61 0
-91 85 0
-91 81 -65 0
-91 -81 65 0
91 -61 81 65 -85 0
91 -61 -81 -65 -85 0
92 41 -61 0
92 -41 61 0
-92 41 61 0
-92 -41 -61 0
93 45 -90 0
93 -45 90 0
-93 45 90 0
-93 -45 -90 0
-94 41 0
-94 90 0
-94 61 -45 0
-94 -61 45 0
94 -41 61 45 -90 0
94 -41 -61 -45 -90 0
95 21 -41 0
95 -21 41 0
-95 21 41 0
-95 -21 -41 0
96 25 -93 0
96 -25 93 0
-96 25 93 0
-96 -25 -93 0
-97 21 0
-97 93 0
-97 41 -25 0
-97 -41 25 0
97 -21 41 25 -93 0
97 -21 -41 -25 -93 0
98 21 -96 0
-98 21 96 0
-99 21 0
98 -99 -96 0
-98 -99 96 0
98 99 -21 96 0
-98 99 -21 -96 0
-100 21 0
98 -100 96 0
-98 -100 -96 0
98 100 -21 -96 0
-98 100 -21 96 0
-101 21 0
-101 96 0
-101 -98 0
101 98 -21 -96 0
102 -21 98 0
-102 21 98 0
-103 98 0
102 -103 -21 0
-102 -103 21 0
102 103 21 -98 0
-102 103 -21 -98 0
-104 98 0
102 -104 21 0
-102 -104 -21 0
102 104 -21 -98 0
-102 104 21 -98 0
-105 102 0
-105 98 0
-105 -21 0
105 -102 21 -98 0
106 102 -98 0
-106 102 98 0
-107 102 0
106 -107 -98 0
-106 -107 98 0
106 107 -102 98 0
-106 107 -102 -98 0
-108 102 0
106 -108 98 0
-106 -108 -98 0
106 108 -102 -98 0
-106 108 -102 98 0
-109 102 0
-109 98 0
-109 -106 0
109 106 -102 -98 0
110 -102 106 0
-110 102 106 0
-111 106 0
110 -111 -102 0
-110 -111 102 0
110 111 102 -106 0
-110 111 -102 -106 0
-112 106 0
110 -112 102 0
-110 -112 -102 0
110 112 -102 -106 0
-110 112 102 -106 0
-113 110 0
-113 106 0
-113 -102 0
113 -110 102 -106 0
114 110 -106 0
-114 110 106 0
-115 110 0
114 -115 -106 0
-114 -115 106 0
114 115 -110 106 0
-114 115 -110 -106 0
-116 110 0
114 -116 106 0
-114 -116 -106 0
114 116 -110 -106 0
-114 116 -110 106 0
-117 110 0
-117 106 0
-117 -114 0
117 114 -110 -106 0
118 95 -93 0
-118 95 93 0
-119 95 0
118 -119 -93 0
-118 -119 93 0
118 119 -95 93 0
-118 119 -95 -93 0
-120 95 0
118 -120 93 0
-118 -120 -93 0
118 120 -95 -93 0
-118 120 -95 93 0
-121 95 0
-121 93 0
-121 -118 0
121 118 -95 -93 0
122 -95 118 0
-122 95 118 0
-123 118 0
122 -123 -95 0
-122 -123 95 0
122 123 95 -118 0
-122 123 -95 -118 0
-124 118 0
122 -124 95 0
-122 -124 -95 0
122 124 -95 -118 0
-122 124 95 -118 0
-125 122 0
-125 118 0
-125 -95 0
125 -122 95 -118 0
126 122 -118 0
-126 122 118 0
-127 122 0
126 -127 -118 0
-126 -127 118 0
126 127 -122 118 0
-126 127 -122 -118 0
-128 122 0
126 -128 118 0
-126 -128 -118 0
126 128 -122 -118 0
-126 128 -122 118 0
-129 122 0
-129 118 0
-129 -126 0
129 126 -122 -118 0
130 -122 126 0
-130 122 126 0
-131 126 0
130 -131 -122 0
-130 -131 122 0
130 131 122 -126 0
-130 131 -122 -126 0
-132 126 0
130 -132 122 0
-130 -132 -122 0
130 132 -122 -126 0
-130 132 122 -126 0
-133 130 0
-133 126 0
-133 -122 0
133 -130 122 -126 0
134 130 -126 0
-134 130 126 0
-135 130 0
134 -135 -126 0
-134 -135 126 0
134 135 -130 126 0
-134 135 -130 -126 0
-136 130 0
134 -136 126 0
-134 -136 -126 0
134 136 -130 -126 0
-134 136 -130 126 0
-137 130 0
-137 126 0
-137 -134 0
137 134 -130 -126 0
138 92 -90 0
-138 92 90 0
-139 92 0
138 -139 -90 0
-138 -139 90 0
138 139 -92 90 0
-138 139 -92 -90 0
-140 92 0
138 -140 90 0
-138 -140 -90 0
138 140 -92 -90 0
-138 140 -92 90 0
-141 92 0
-141 90 0
-141 -138 0
141 138 -92 -90 0
142 -92 138 0
-142 92 138 0
-143 138 0
142 -143 -92 0
-142 -143 92 0
142 143 92 -138 0
-142 143 -92 -138 0
-144 138 0
142 -144 92 0
-142 -144 -92 0
142 144 -92 -138 0
-142 144 92 -138 0
-145 142 0
-145 138 0
-145 -92 0
145 -142 92 -138 0
146 142 -138 0
-146 142 138 0
-147 142 0
146 -147 -138 0
-146 -147 138 0
146 147 -142 138 0
-146 147 -142 -138 0
-148 142 0
146 -148 138 0
-146 -148 -138 0
146 148 -142 -138 0
-146 148 -142 138 0
-149 142 0
-149 138 0
-149 -146 0
149 146 -142 -138 0
150 -142 146 0
-150 142 146 0
-151 146 0
150 -151 -142 0
-150 -151 142 0
150 151 142 -146 0
-150 151 -142 -146 0
-152 146 0
150 -152 142 0
-150 -152 -142 0
150 152 -142 -146 0
-150 152 142 -146 0
-153 150 0
-153 146 0
-153 -142 0
153 -150 142 -146 0
154 150 -146 0
-154 150 146 0
-155 150 0
154 -155 -146 0
-154 -155 146 0
154 155 -150 146 0
-154 155 -150 -146 0
-156 150 0
154 -156 146 0
-154 -156 -146 0
154 156 -150 -146 0
-154 156 -150 146 0
-157 150 0
-157 146 0
-157 -154 0
157 154 -150 -146 0
158 89 -85 0
-158 89 85 0
-159 89 0
158 -159 -85 0
-158 -159 85 0
158 159 -89 85 0
-158 159 -89 -85 0
-160 89 0
158 -160 85 0
-158 -160 -85 0
158 160 -89 -85 0
-158 160 -89 85 0
-161 89 0
-161 85 0
-161 -158 0
161 158 -89 -85 0
162 -89 158 0
-162 89 158 0
-163 158 0
162 -163 -89 0
-162 -163 89 0
162 163 89 -158 0
-162 163 -89 -158 0
-164 158 0
162 -164 89 0
-162 -164 -89 0
162 164 -89 -158 0
-162 164 89 -158 0
-165 162 0
-165 158 0
-165 -89 0
165 -162 89 -158 0
166 162 -158 0
-166 162 158 0
-167 162 0
166 -167 -158 0
-166 -167 158 0
166 167 -162 158 0
-166 167 -162 -158 0
-168 162 0
166 -168 158 0
-166 -168 -158 0
166 168 -162 -158 0
-166 168 -162 158 0
-169 162 0
-169 158 0
-169 -166 0
169 166 -162 -158 0
170 -162 166 0
-170 162 166 0
-171 166 0
170 -171 -162 0
-170 -171 162 0
170 171 162 -166 0
-170 171 -162 -166 0
-172 166 0
170 -172 162 0
-170 -172 -162 0
170 172 -162 -166 0
-170 172 162 -166 0
-173 170 0
-173 166 0
-173 -162 0
173 -170 162 -166 0
174 170 -166 0
-174 170 166 0
-175 170 0
174 -175 -166 0
-174 -175 166 0
174 175 -170 166 0
-174 175 -170 -166 0
-176 170 0
174 -176 166 0
-174 -176 -166 0
174 176 -170 -166 0
-174 176 -170 166 0
-177 170 0
-177 166 0
-177 -174 0
177 174 -170 -166 0
178 150 -170 0
178 -150 170 0
-178 150 170 0
-178 -150 -170 0
179 154 -174 0
179 -154 174 0
-179 154 174 0
-179 -154 -174 0
-180 150 0
-180 174 0
-180 170 -154 0
-180 -170 154 0
180 -150 170 154 -174 0
180 -150 -170 -154 -174 0
181 130 -150 0
181 -130 150 0
-181 130 150 0
-181 -130 -150 0
182 134 -179 0
182 -134 179 0
-182 134 179 0
-182 -134 -179 0
-183 130 0
-183 179 0
-183 150 -134 0
-183 -150 134 0
183 -130 150 134 -179 0
183 -130 -150 -134 -179 0
184 110 -130 0
184 -110 130 0
-184 110 130 0
-184 -110 -130 0
185 114 -182 0
185 -114 182 0
-185 114 182 0
-185 -114 -182 0
-186 110 0
-186 182 0
-186 130 -114 0
-186 -130 114 0
186 -110 130 114 -182 0
186 -110 -130 -114 -182 0
187 110 -185 0
-187 110 185 0
-188 110 0
187 -188 -185 0
-187 -188 185 0
187 188 -110 185 0
-187 188 -110 -185 0
-189 110 0
187 -189 185 0
-187 -189 -185 0
187 189 -110 -185 0
-187 189 -110 185 0
-190 110 0
-190 185 0
-190 -187 0
190 187 -110 -185 0
191 -110 187 0
-191 110 187 0
-192 187 0
191 -192 -110 0
-191 -192 110 0
191 192 110 -187 0
-191 192 -110 -187 0
-193 187 0
191 -193 110 0
-191 -193 -110 0
191 193 -110 -187 0
-191 193 110 -187 0
-194 191 0
-194 187 0
-194 -110 0
194 -191 110 -187 0
195 191 -187 0
-195 191 187 0
-196 191 0
195 -196 -187 0
-195 -196 187 0
195 196 -191 187 0
-195 196 -191 -187 0
-197 191 0
195 -197 187 0
-195 -197 -187 0
195 197 -191 -187 0
-195 197 -191 187 0
-198 191 0
-198 187 0
-198 -195 0
198 195 -191 -187 0
199 -191 195 0
-199 191 195 0
-200 195 0
199 -200 -191 0
-199 -200 191 0
199 200 191 -195 0
-199 200 -191 -195 0
-201 195 0
199 -201 191 0
-199 -201 -191 0
199 201 -191 -195 0
-199 201 191 -195 0
-202 199 0
-202 195 0
-202 -191 0
202 -199 191 -195 0
203 199 -195 0
-203 199 195 0
-204 199 0
203 -204 -195 0
-203 -204 195 0
203 204 -199 195 0
-203 204 -199 -195 0
-205 199 0
203 -205 195 0
-203 -205 -195 0
203 205 -199 -195 0
-203 205 -199 195 0
-206 199 0
-206 195 0
-206 -203 0
206 203 -199 -195 0
207 184 -182 0
-207 184 182 0
-208 184 0
207 -208 -182 0
-207 -208 182 0
207 208 -184 182 0
-207 208 -184 -182 0
-209 184 0
207 -209 182 0
-207 -209 -182 0
207 209 -184 -182 0
-207 209 -184 182 0
-210 184 0
-210 182 0
-210 -207 0
210 207 -184 -182 0
211 -184 207 0
-211 184 207 0
-212 207 0
211 -212 -184 0
-211 -212 184 0
211 212 184 -207 0
-211 212 -184 -207 0
-213 207 0
211 -213 184 0
-211 -213 -184 0
211 213 -184 -207 0
-211 213 184 -207 0
-214 211 0
-214 207 0
-214 -184 0
214 -211 184 -207 0
215 211 -207 0
-215 211 207 0
-216 211 0
215 -216 -207 0
-215 -216 207 0
215 216 -211 207 0
-215 216 -211 -207 0
-217 211 0
215 -217 207 0
-215 -217 -207 0
215 217 -211 -207 0
-215 217 -211 207 0
-218 211 0
-218 207 0
-218 -215 0
218 215 -211 -207 0
219 -211 215 0
-219 211 215 0
-220 215 0
219 -220 -211 0
-219 -220 211 0
219 220 211 -215 0
-219 220 -211 -215 0
-221 215 0
219 -221 211 0
-219 -221 -211 0
219 221 -211 -215 0
-219 221 211 -215 0
-222 219 0
-222 215 0
-222 -211 0
222 -219 211 -215 0
223 219 -215 0
-223 219 215 0
-224 219 0
223 -224 -215 0
-223 -224 215 0
223 224 -219 215 0
-223 224 -219 -215 0
-225 219 0
223 -225 215 0
-223 -225 -215 0
223 225 -219 -215 0
-223 225 -219 215 0
-226 219 0
-226 215 0
-226 -223 0
226 223 -219 -215 0
227 181 -179 0
-227 181 179 0
-228 181 0
227 -228 -179 0
-227 -228 179 0
227 228 -181 179 0
-227 228 -181 -179 0
-229 181 0
227 -229 179 0
-227 -229 -179 0
227 229 -181 -179 0
-227 229 -181 179 0
-230 181 0
-230 179 0
-230 -227 0
230 227 -181 -179 0
231 -181 227 0
-231 181 227 0
-232 227 0
231 -232 -181 0
-231 -232 181 0
231 232 181 -227 0
-231 232 -181 -227 0
-233 227 0
231 -233 181 0
-231 -233 -181 0
231 233 -181 -227 0
-231 233 181 -227 0
-234 231 0
-234 227 0
-234 -181 0
234 -231 181 -227 0
235 231 -227 0
-235 231 227 0
-236 231 0
235 -236 -227 0
-235 -236 227 0
235 236 -231 227 0
-235 236 -231 -227 0
-237 231 0
235 -237 227 0
-235 -237 -227 0
235 237 -231 -227 0
-235 237 -231 227 0
-238 231 0
-238 227 0
-238 -235 0
238 235 -231 -227 0
239 -231 235 0
-239 231 235 0
-240 235 0
239 -240 -231 0
-239 -240 231 0
239 240 231 -235 0
-239 240 -231 -235 0
-241 235 0
239 -241 231 0
-239 -241 -231 0
239 241 -231 -235 0
-239 241 231 -235 0
-242 239 0
-242 235 0
-242 -231 0
242 -239 231 -235 0
243 239 -235 0
-243 239 235 0
-244 239 0
243 -244 -235 0
-243 -244 235 0
243 244 -239 235 0
-243 244 -239 -235 0
-245 239 0
243 -245 235 0
-243 -245 -235 0
243 245 -239 -235 0
-243 245 -239 235 0
-246 239 0
-246 235 0
-246 -243 0
246 243 -239 -235 0
247 178 -174 0
-247 178 174 0
-248 178 0
247 -248 -174 0
-247 -248 174 0
247 248 -178 174 0
-247 248 -178 -174 0
-249 178 0
247 -249 174 0
-247 -249 -174 0
247 249 -178 -174 0
-247 249 -178 174 0
-250 178 0
-250 174 0
-250 -247 0
250 247 -178 -174 0
251 -178 247 0
-251 178 247 0
-252 247 0
251 -252 -178 0
-251 -252 178 0
251 252 178 -247 0
-251 252 -178 -247 0
-253 247 0
251 -253 178 0
-251 -253 -178 0
251 253 -178 -247 0
-251 253 178 -247 0
-254 251 0
-254 247 0
-254 -178 0
254 -251 178 -247 0
255 251 -247 0
-255 251 247 0
-256 251 0
255 -256 -247 0
-255 -256 247 0
255 256 -251 247 0
-255 256 -251 -247 0
-257 251 0
255 -257 247 0
-255 -257 -247 0
255 257 -251 -247 0
-255 257 -251 247 0
-258 251 0
-258 247 0
-258 -255 0
258 255 -251 -247 0
259 -251 255 0
-259 251 255 0
-260 255 0
259 -260 -251 0
-259 -260 251 0
259 260 251 -255 0
-259 260 -251 -255 0
-261 255 0
259 -261 251 0
-259 -261 -251 0
259 261 -251 -255 0
-259 261 251 -255 0
-262 259 0
-262 255 0
-262 -251 0
262 -259 251 -255 0
263 259 -255 0
-263 259 255 0
-264 259 0
263 -264 -255 0
-263 -264 255 0
263 264 -259 255 0
-263 264 -259 -255 0
-265 259 0
263 -265 255 0
-263 -265 -255 0
263 265 -259 -255 0
-263 265 -259 255 0
-266 259 0
-266 255 0
-266 -263 0
266 263 -259 -255 0
-199 0
-219 0
-223 0
-239 0
-243 0
-259 0
-263 0
